This is Ipopt version 3.10.0, running with linear solver ma27.

Number of nonzeros in equality constraint Jacobian...:        0
Number of nonzeros in inequality constraint Jacobian.:       16
Number of nonzeros in Lagrangian Hessian.............:        0

Total number of variables............................:       16
                     variables with only lower bounds:        0
                variables with lower and upper bounds:       16
                     variables with only upper bounds:        0
Total number of equality constraints.................:        0
Total number of inequality constraints...............:        1
        inequality constraints with only lower bounds:        0
   inequality constraints with lower and upper bounds:        0
        inequality constraints with only upper bounds:        1

iter    objective    inf_pr   inf_du lg(mu)  ||d||  lg(rg) alpha_du alpha_pr  ls
   0  2.6125939e-03 3.11e-01 9.96e-01   0.0 0.00e+00    -  0.00e+00 0.00e+00   0
   1  7.0989972e-03 0.00e+00 7.30e-01  -1.6 2.44e-02    -  1.00e+00 1.00e+00h  1
   2  6.0608247e-03 0.00e+00 2.18e-01  -2.6 6.17e-03    -  1.00e+00 1.00e+00h  1
   3  4.8466868e-03 0.00e+00 1.66e-01  -3.3 2.50e-02    -  1.00e+00 1.00e+00h  1
   4  4.7945363e-03 0.00e+00 1.92e-02  -4.4 1.33e-02    -  1.00e+00 1.00e+00h  1
   5  4.6416555e-03 3.72e-03 8.41e-02  -5.1 7.25e-03    -  1.00e+00 1.00e+00h  1
   6  4.0072817e-03 5.86e-02 5.49e-02  -5.7 8.88e-03    -  1.00e+00 1.00e+00h  1
   7  4.1732884e-03 1.06e-02 3.56e-02  -4.9 7.98e-03    -  1.00e+00 8.95e-01h  1
   8  4.3006613e-03 1.20e-03 2.02e-02  -4.4 5.97e-03    -  1.00e+00 5.72e-01h  1
   9  4.3201955e-03 0.00e+00 9.74e-03  -4.5 2.63e-03    -  1.00e+00 1.00e+00h  1
iter    objective    inf_pr   inf_du lg(mu)  ||d||  lg(rg) alpha_du alpha_pr  ls
  10  4.3000610e-03 0.00e+00 9.44e-03  -5.2 7.33e-03    -  1.00e+00 1.00e+00H  1
  11  4.3430296e-03 0.00e+00 8.14e-03  -5.2 2.75e-03    -  1.00e+00 9.98e-01H  1
  12  4.3497688e-03 0.00e+00 8.73e-03  -5.7 1.57e-03    -  1.00e+00 1.00e+00H  1
  13  4.3587631e-03 0.00e+00 6.10e-03  -6.0 8.44e-04    -  1.00e+00 2.50e-01h  3
  14  4.3412655e-03 2.61e-04 1.97e-03  -6.8 3.85e-04    -  1.00e+00 1.00e+00h  1
  15  4.3672195e-03 2.27e-04 1.28e-02  -8.3 1.90e-04    -  1.00e+00 1.00e+00h  1
  16  4.3630108e-03 0.00e+00 1.80e-02  -7.2 2.44e-04    -  1.00e+00 9.60e-01h  1
  17  4.3613406e-03 3.34e-05 1.23e-02  -7.2 5.56e-05    -  1.00e+00 3.46e-01f  1

Number of Iterations....: 17

                                   (scaled)                 (unscaled)
Objective...............:   4.3613405540255980e-03    4.3613405540255980e-03
Dual infeasibility......:   1.2253614879521060e-02    1.2253614879521060e-02
Constraint violation....:   3.3427369207738042e-05    3.3427369207738042e-05
Complementarity.........:   7.0083007669269708e-08    7.0083007669269708e-08
Overall NLP error.......:   1.2253614879521060e-02    1.2253614879521060e-02


Number of objective function evaluations             = 26
Number of objective gradient evaluations             = 18
Number of equality constraint evaluations            = 0
Number of inequality constraint evaluations          = 26
Number of equality constraint Jacobian evaluations   = 0
Number of inequality constraint Jacobian evaluations = 18
Number of Lagrangian Hessian evaluations             = 0
Total CPU secs in IPOPT (w/o function evaluations)   =      0.395
Total CPU secs in NLP function evaluations           =  50662.616

EXIT: Stopping optimization at current point as requested by user.
